1
1000
249
497 1
495 1
493 1
489 1
488 1
486 1
483 1
482 1
476 1
476 1
474 1
473 1
473 1
472 1
467 1
466 1
466 1
464 1
462 1
461 1
459 1
456 1
455 1
455 1
454 1
453 1
451 1
451 1
450 1
449 1
449 1
444 1
442 1
437 1
433 1
433 1
432 1
428 1
426 1
424 1
424 1
423 1
423 1
422 1
420 1
420 1
417 1
414 1
414 1
413 1
412 1
411 1
410 1
410 1
406 1
406 1
405 1
404 1
403 1
403 1
401 1
399 1
397 1
396 1
395 1
394 1
392 1
391 1
386 1
384 1
382 1
382 1
380 1
378 1
378 1
374 1
372 1
364 1
362 1
362 1
361 1
360 1
359 1
359 1
358 1
358 1
356 1
356 1
356 1
353 1
353 1
352 1
346 1
345 1
342 1
342 1
340 1
340 1
338 1
334 1
332 1
331 1
330 1
329 1
326 1
326 1
325 1
324 1
324 1
321 1
320 1
320 1
319 1
318 1
318 1
317 1
316 1
316 1
316 1
314 1
314 1
313 1
311 1
309 1
307 1
307 1
306 1
305 1
305 1
305 1
303 1
302 1
300 1
299 1
296 1
296 1
295 1
294 1
294 1
294 1
294 1
294 1
293 1
292 1
291 1
290 1
290 1
289 1
289 1
285 1
285 1
284 1
283 1
283 1
282 1
282 1
281 1
281 1
281 1
280 1
280 1
280 1
280 1
280 1
279 1
278 1
278 1
278 1
276 1
275 1
275 1
275 1
275 1
274 1
274 1
274 1
274 1
274 1
273 1
273 1
272 1
272 1
271 1
271 1
270 1
270 1
270 1
269 1
269 1
268 1
268 1
266 1
266 1
265 1
265 1
265 1
265 1
264 1
264 1
264 1
264 1
262 1
261 1
261 1
261 1
261 1
261 1
260 1
260 1
260 1
259 1
258 1
257 1
257 1
257 1
257 1
257 1
256 1
256 1
256 1
256 1
256 1
255 1
255 1
255 1
255 1
255 1
255 1
255 1
255 1
255 1
255 1
255 1
254 1
253 1
253 1
253 1
253 1
253 1
253 1
253 1
252 1
252 1
252 1
252 1
251 1
251 1
251 1
250 1
